(set-info :source |printed by MathSAT|)
(declare-fun A_11 () Int)
(declare-fun .x.671 () Int)
(declare-fun E1_5 () (Array Int Int))
(declare-fun .x.672 () (Array Int Int))
(declare-fun C_11 () (Array Int Int))
(declare-fun .x.673 () (Array Int Int))
(declare-fun D_11 () (Array Int (Array Int Int)))
(declare-fun .x.674 () (Array Int (Array Int Int)))
(declare-fun E_11 () (Array Int (Array Int Int)))
(declare-fun .x.675 () (Array Int (Array Int Int)))
(declare-fun F_11 () Int)
(declare-fun .x.676 () Int)
(declare-fun G_11 () Int)
(declare-fun .x.677 () Int)
(declare-fun H_11 () (Array Int Int))
(declare-fun .x.678 () (Array Int Int))
(declare-fun I_11 () (Array Int Int))
(declare-fun .x.679 () (Array Int Int))
(declare-fun J_11 () Int)
(declare-fun .x.680 () Int)
(declare-fun K_11 () Int)
(declare-fun .x.681 () Int)
(declare-fun L_11 () Int)
(declare-fun .x.682 () Int)
(declare-fun F1_3 () Int)
(declare-fun .x.683 () Int)
(declare-fun N_11 () Int)
(declare-fun .x.684 () Int)
(declare-fun O_11 () Int)
(declare-fun .x.685 () Int)
(declare-fun P_11 () Int)
(declare-fun .x.686 () Int)
(declare-fun G1_2 () Int)
(declare-fun .x.687 () Int)
(declare-fun H1_0 () Int)
(declare-fun .x.688 () Int)
(declare-fun S_11 () Int)
(declare-fun .x.689 () Int)
(declare-fun T_11 () Int)
(declare-fun .x.690 () Int)
(declare-fun U_11 () Int)
(declare-fun .x.691 () Int)
(declare-fun I1_0 () Int)
(declare-fun .x.692 () Int)
(declare-fun J1_0 () Int)
(declare-fun .x.693 () Int)
(declare-fun X_11 () Int)
(declare-fun .x.694 () Int)
(declare-fun K1_0 () Int)
(declare-fun .x.695 () Int)
(declare-fun Z_11 () Int)
(declare-fun .x.696 () Int)
(declare-fun L1_0 () Int)
(declare-fun .x.697 () Int)
(declare-fun B1_11 () Int)
(declare-fun .x.698 () Int)
(declare-fun C1_11 () Int)
(declare-fun .x.699 () Int)
(declare-fun D1_11 () Bool)
(declare-fun .x.700 () Bool)
(declare-fun .loc.5 () Bool)
(declare-fun .loc.9 () Bool)
(declare-fun .loc.6 () Bool)
(declare-fun .loc.10 () Bool)
(declare-fun .loc.7 () Bool)
(declare-fun .loc.11 () Bool)
(declare-fun .loc.8 () Bool)
(declare-fun .loc.12 () Bool)
(declare-fun E1_3 () (Array Int (Array Int Int)))
(declare-fun E1_8 () Int)
(declare-fun F1_7 () Int)
(declare-fun E1_0 () (Array Int Int))
(define-fun .def_8 () Int (! A_11 :next |.x.671|))
(define-fun .def_10 () (Array Int Int) (! E1_5 :next |.x.672|))
(define-fun .def_12 () (Array Int Int) (! C_11 :next |.x.673|))
(define-fun .def_14 () (Array Int (Array Int Int)) (! D_11 :next |.x.674|))
(define-fun .def_16 () (Array Int (Array Int Int)) (! E_11 :next |.x.675|))
(define-fun .def_18 () Int (! F_11 :next |.x.676|))
(define-fun .def_20 () Int (! G_11 :next |.x.677|))
(define-fun .def_22 () (Array Int Int) (! H_11 :next |.x.678|))
(define-fun .def_24 () (Array Int Int) (! I_11 :next |.x.679|))
(define-fun .def_26 () Int (! J_11 :next |.x.680|))
(define-fun .def_28 () Int (! K_11 :next |.x.681|))
(define-fun .def_30 () Int (! L_11 :next |.x.682|))
(define-fun .def_32 () Int (! F1_3 :next |.x.683|))
(define-fun .def_34 () Int (! N_11 :next |.x.684|))
(define-fun .def_36 () Int (! O_11 :next |.x.685|))
(define-fun .def_38 () Int (! P_11 :next |.x.686|))
(define-fun .def_40 () Int (! G1_2 :next |.x.687|))
(define-fun .def_42 () Int (! H1_0 :next |.x.688|))
(define-fun .def_44 () Int (! S_11 :next |.x.689|))
(define-fun .def_46 () Int (! T_11 :next |.x.690|))
(define-fun .def_48 () Int (! U_11 :next |.x.691|))
(define-fun .def_50 () Int (! I1_0 :next |.x.692|))
(define-fun .def_52 () Int (! J1_0 :next |.x.693|))
(define-fun .def_54 () Int (! X_11 :next |.x.694|))
(define-fun .def_56 () Int (! K1_0 :next |.x.695|))
(define-fun .def_58 () Int (! Z_11 :next |.x.696|))
(define-fun .def_60 () Int (! L1_0 :next |.x.697|))
(define-fun .def_62 () Int (! B1_11 :next |.x.698|))
(define-fun .def_64 () Int (! C1_11 :next |.x.699|))
(define-fun .def_66 () Bool (! D1_11 :next |.x.700|))
(define-fun .def_68 () Bool (! .loc.5 :next |.loc.9|))
(define-fun .def_70 () Bool (! .loc.6 :next |.loc.10|))
(define-fun .def_72 () Bool (! .loc.7 :next |.loc.11|))
(define-fun .def_74 () Bool (! .loc.8 :next |.loc.12|))
(define-fun .def_173 () (Array Int (Array Int Int)) (! E1_3 :next |.xtv.1|))
(define-fun .def_220 () Int (! E1_8 :next |.xtv.2|))
(define-fun .def_228 () Int (! F1_7 :next |.xtv.3|))
(define-fun .def_298 () (Array Int Int) (! E1_0 :next |.xtv.4|))
(define-fun .def_201 () Bool (not .def_68))
(define-fun .def_105 () Bool (not .def_70))
(define-fun .def_703 () Bool (and .def_105 .def_201))
(define-fun .def_704 () Bool (and .def_72 .def_703))
(define-fun .def_110 () Bool (not .def_74))
(define-fun .def_705 () Bool (and .def_110 .def_704))
(define-fun .def_697 () Bool (= .def_14 .def_16))
(define-fun .def_696 () Bool (not .def_66))
(define-fun .def_698 () Bool (and .def_696 .def_697))
(define-fun .def_695 () Bool (= .def_18 .def_20))
(define-fun .def_699 () Bool (and .def_695 .def_698))
(define-fun .def_694 () Bool (= .def_26 .def_28))
(define-fun .def_700 () Bool (and .def_694 .def_699))
(define-fun .def_693 () Bool (= .def_22 .def_24))
(define-fun .def_701 () Bool (and .def_693 .def_700))
(define-fun .def_692 () Bool (= .def_10 .def_12))
(define-fun .def_702 () Bool (and .def_692 .def_701))
(define-fun .def_706 () Bool (! (and .def_702 .def_705) :init true))
(define-fun .def_689 () Bool (= .def_28 .x.681))
(define-fun .def_687 () Bool (= .def_24 .x.679))
(define-fun .def_685 () Bool (= .def_20 .x.677))
(define-fun .def_683 () Bool (= .def_16 .x.675))
(define-fun .def_681 () Bool (= .def_8 .x.671))
(define-fun .def_680 () Bool (= .def_12 .x.673))
(define-fun .def_682 () Bool (and .def_680 .def_681))
(define-fun .def_684 () Bool (and .def_682 .def_683))
(define-fun .def_686 () Bool (and .def_684 .def_685))
(define-fun .def_688 () Bool (and .def_686 .def_687))
(define-fun .def_690 () Bool (and .def_688 .def_689))
(define-fun .def_650 () Bool (= .x.689 .x.693))
(define-fun .def_651 () Bool (or .x.700 .def_650))
(define-fun .def_643 () Bool (= .x.693 0))
(define-fun .def_639 () (Array Int Int) (store .def_10 .def_50 0))
(define-fun .def_640 () (Array Int Int) (store .def_639 .def_56 0))
(define-fun .def_641 () (Array Int Int) (store .def_640 .def_42 0))
(define-fun .def_642 () Bool (= .x.672 .def_641))
(define-fun .def_644 () Bool (and .def_642 .def_643))
(define-fun .def_645 () Bool (or .def_66 .def_644))
(define-fun .def_85 () Bool (= .def_34 .x.684))
(define-fun .def_646 () Bool (and .def_85 .def_645))
(define-fun .def_95 () Bool (= .def_58 .x.696))
(define-fun .def_647 () Bool (and .def_95 .def_646))
(define-fun .def_97 () Bool (= .def_62 .x.698))
(define-fun .def_648 () Bool (and .def_97 .def_647))
(define-fun .def_101 () Bool (= .def_66 .x.700))
(define-fun .def_649 () Bool (and .def_101 .def_648))
(define-fun .def_652 () Bool (and .def_649 .def_651))
(define-fun .def_653 () Bool (and .def_74 .def_652))
(define-fun .def_654 () Bool (and .def_201 .def_653))
(define-fun .def_655 () Bool (and .def_105 .def_654))
(define-fun .def_203 () Bool (not .def_72))
(define-fun .def_656 () Bool (and .def_203 .def_655))
(define-fun .def_169 () Int (* 4 .x.685))
(define-fun .def_237 () Int (+ .def_169 .x.687))
(define-fun .def_486 () (Array Int Int) (select .x.674 .x.688))
(define-fun .def_487 () Int (select .def_486 .def_237))
(define-fun .def_488 () Bool (= .x.698 .def_487))
(define-fun .def_483 () Bool (= .x.698 0))
(define-fun .def_484 () Int (ite .def_483 1 0))
(define-fun .def_485 () Bool (= .x.696 .def_484))
(define-fun .def_489 () Bool (and .def_485 .def_488))
(define-fun .def_482 () Bool (= .x.684 .x.696))
(define-fun .def_490 () Bool (and .def_482 .def_489))
(define-fun .def_481 () Bool (= .x.685 15000))
(define-fun .def_491 () Bool (and .def_481 .def_490))
(define-fun .def_627 () Bool (or .def_66 .def_491))
(define-fun .def_476 () Bool (= .x.684 0))
(define-fun .def_625 () Bool (or .def_66 .def_476))
(define-fun .def_621 () Bool (and .x.700 .def_68))
(define-fun .def_622 () Bool (and .def_70 .def_621))
(define-fun .def_623 () Bool (and .def_72 .def_622))
(define-fun .def_624 () Bool (and .def_110 .def_623))
(define-fun .def_626 () Bool (and .def_624 .def_625))
(define-fun .def_628 () Bool (and .def_626 .def_627))
(define-fun .def_112 () Bool (= .def_60 .x.697))
(define-fun .def_629 () Bool (and .def_112 .def_628))
(define-fun .def_114 () Bool (= .def_56 .x.695))
(define-fun .def_630 () Bool (and .def_114 .def_629))
(define-fun .def_116 () Bool (= .def_52 .x.693))
(define-fun .def_631 () Bool (and .def_116 .def_630))
(define-fun .def_118 () Bool (= .def_50 .x.692))
(define-fun .def_632 () Bool (and .def_118 .def_631))
(define-fun .def_120 () Bool (= .def_44 .x.689))
(define-fun .def_633 () Bool (and .def_120 .def_632))
(define-fun .def_122 () Bool (= .def_42 .x.688))
(define-fun .def_634 () Bool (and .def_122 .def_633))
(define-fun .def_124 () Bool (= .def_40 .x.687))
(define-fun .def_635 () Bool (and .def_124 .def_634))
(define-fun .def_126 () Bool (= .def_32 .x.683))
(define-fun .def_636 () Bool (and .def_126 .def_635))
(define-fun .def_128 () Bool (= .def_10 .x.672))
(define-fun .def_637 () Bool (and .def_128 .def_636))
(define-fun .def_145 () Bool (<= 100000 .def_36))
(define-fun .def_146 () Bool (not .def_145))
(define-fun .def_451 () Bool (or .def_66 .def_146))
(define-fun .def_638 () Bool (and .def_451 .def_637))
(define-fun .def_657 () Bool (or .def_638 .def_656))
(define-fun .def_658 () Bool (and .loc.9 .def_657))
(define-fun .def_603 () Bool (and .def_66 .def_85))
(define-fun .def_604 () Bool (and .def_95 .def_603))
(define-fun .def_605 () Bool (and .def_97 .def_604))
(define-fun .def_606 () Bool (and .def_101 .def_605))
(define-fun .def_607 () Bool (and .def_68 .def_606))
(define-fun .def_608 () Bool (and .def_70 .def_607))
(define-fun .def_609 () Bool (and .def_72 .def_608))
(define-fun .def_610 () Bool (and .def_110 .def_609))
(define-fun .def_611 () Bool (and .def_112 .def_610))
(define-fun .def_612 () Bool (and .def_114 .def_611))
(define-fun .def_613 () Bool (and .def_116 .def_612))
(define-fun .def_614 () Bool (and .def_118 .def_613))
(define-fun .def_615 () Bool (and .def_120 .def_614))
(define-fun .def_616 () Bool (and .def_122 .def_615))
(define-fun .def_617 () Bool (and .def_124 .def_616))
(define-fun .def_618 () Bool (and .def_126 .def_617))
(define-fun .def_619 () Bool (and .def_128 .def_618))
(define-fun .def_130 () Bool (not .loc.9))
(define-fun .def_620 () Bool (and .def_130 .def_619))
(define-fun .def_659 () Bool (or .def_620 .def_658))
(define-fun .def_564 () Bool (and .def_85 .def_95))
(define-fun .def_565 () Bool (and .def_97 .def_564))
(define-fun .def_566 () Bool (and .def_101 .def_565))
(define-fun .def_567 () Bool (and .def_68 .def_566))
(define-fun .def_589 () Bool (and .def_70 .def_567))
(define-fun .def_590 () Bool (and .def_72 .def_589))
(define-fun .def_591 () Bool (and .def_110 .def_590))
(define-fun .def_592 () Bool (and .def_112 .def_591))
(define-fun .def_593 () Bool (and .def_114 .def_592))
(define-fun .def_594 () Bool (and .def_116 .def_593))
(define-fun .def_595 () Bool (and .def_118 .def_594))
(define-fun .def_596 () Bool (and .def_120 .def_595))
(define-fun .def_597 () Bool (and .def_122 .def_596))
(define-fun .def_598 () Bool (and .def_124 .def_597))
(define-fun .def_599 () Bool (and .def_126 .def_598))
(define-fun .def_600 () Bool (and .def_128 .def_599))
(define-fun .def_601 () Bool (and .def_130 .def_600))
(define-fun .def_405 () Bool (or .def_66 .def_145))
(define-fun .def_602 () Bool (and .def_405 .def_601))
(define-fun .def_660 () Bool (or .def_602 .def_659))
(define-fun .def_91 () Bool (= .def_46 .x.690))
(define-fun .def_87 () Bool (= .def_36 .x.685))
(define-fun .def_585 () Bool (and .def_87 .def_91))
(define-fun .def_586 () Bool (and .loc.12 .def_585))
(define-fun .def_293 () Bool (not .loc.10))
(define-fun .def_587 () Bool (and .def_293 .def_586))
(define-fun .def_108 () Bool (not .loc.11))
(define-fun .def_588 () Bool (and .def_108 .def_587))
(define-fun .def_661 () Bool (and .def_588 .def_660))
(define-fun .def_568 () Bool (and .def_105 .def_567))
(define-fun .def_569 () Bool (and .def_203 .def_568))
(define-fun .def_570 () Bool (and .loc.9 .def_569))
(define-fun .def_571 () Bool (and .loc.10 .def_570))
(define-fun .def_572 () Bool (and .loc.11 .def_571))
(define-fun .def_573 () Bool (and .def_110 .def_572))
(define-fun .def_574 () Bool (and .def_112 .def_573))
(define-fun .def_575 () Bool (and .def_114 .def_574))
(define-fun .def_576 () Bool (and .def_116 .def_575))
(define-fun .def_577 () Bool (and .def_118 .def_576))
(define-fun .def_578 () Bool (and .def_120 .def_577))
(define-fun .def_579 () Bool (and .def_122 .def_578))
(define-fun .def_580 () Bool (and .def_124 .def_579))
(define-fun .def_581 () Bool (and .def_126 .def_580))
(define-fun .def_582 () Bool (and .def_128 .def_581))
(define-fun .def_132 () Bool (not .loc.12))
(define-fun .def_583 () Bool (and .def_132 .def_582))
(define-fun .def_379 () Int (* (- 1) .x.685))
(define-fun .def_380 () Int (+ .def_36 .def_379))
(define-fun .def_381 () Bool (= .def_380 (- 1)))
(define-fun .def_382 () Bool (or .def_66 .def_381))
(define-fun .def_584 () Bool (and .def_382 .def_583))
(define-fun .def_662 () Bool (or .def_584 .def_661))
(define-fun .def_543 () Bool (and .def_85 .def_87))
(define-fun .def_544 () Bool (and .def_91 .def_543))
(define-fun .def_545 () Bool (and .def_95 .def_544))
(define-fun .def_546 () Bool (and .def_101 .def_545))
(define-fun .def_547 () Bool (and .def_201 .def_546))
(define-fun .def_548 () Bool (and .def_105 .def_547))
(define-fun .def_549 () Bool (and .def_203 .def_548))
(define-fun .def_550 () Bool (and .loc.9 .def_549))
(define-fun .def_551 () Bool (and .def_293 .def_550))
(define-fun .def_552 () Bool (and .def_108 .def_551))
(define-fun .def_553 () Bool (and .def_110 .def_552))
(define-fun .def_554 () Bool (and .def_112 .def_553))
(define-fun .def_555 () Bool (and .def_114 .def_554))
(define-fun .def_556 () Bool (and .def_116 .def_555))
(define-fun .def_557 () Bool (and .def_118 .def_556))
(define-fun .def_558 () Bool (and .def_120 .def_557))
(define-fun .def_559 () Bool (and .def_122 .def_558))
(define-fun .def_560 () Bool (and .def_124 .def_559))
(define-fun .def_561 () Bool (and .def_126 .def_560))
(define-fun .def_562 () Bool (and .def_128 .def_561))
(define-fun .def_563 () Bool (and .def_132 .def_562))
(define-fun .def_663 () Bool (or .def_563 .def_662))
(define-fun .def_251 () Bool (= .def_14 .x.674))
(define-fun .def_664 () Bool (and .def_251 .def_663))
(define-fun .def_536 () Int (+ .def_32 60000))
(define-fun .def_138 () (Array Int Int) (select .def_14 .def_50))
(define-fun .def_537 () (Array Int Int) (store .def_138 .def_536 1))
(define-fun .def_538 () (Array Int (Array Int Int)) (store .def_14 .def_50 .def_537))
(define-fun .def_539 () Bool (= .x.674 .def_538))
(define-fun .def_331 () Bool (= .x.685 0))
(define-fun .def_540 () Bool (and .def_331 .def_539))
(define-fun .def_541 () Bool (or .def_66 .def_540))
(define-fun .def_514 () Bool (and .def_85 .def_91))
(define-fun .def_515 () Bool (and .def_95 .def_514))
(define-fun .def_516 () Bool (and .def_97 .def_515))
(define-fun .def_517 () Bool (and .def_101 .def_516))
(define-fun .def_518 () Bool (and .def_70 .def_517))
(define-fun .def_519 () Bool (and .def_72 .def_518))
(define-fun .def_520 () Bool (and .def_201 .def_519))
(define-fun .def_521 () Bool (and .loc.9 .def_520))
(define-fun .def_522 () Bool (and .loc.10 .def_521))
(define-fun .def_523 () Bool (and .loc.11 .def_522))
(define-fun .def_524 () Bool (and .def_110 .def_523))
(define-fun .def_525 () Bool (and .def_112 .def_524))
(define-fun .def_526 () Bool (and .def_114 .def_525))
(define-fun .def_527 () Bool (and .def_116 .def_526))
(define-fun .def_528 () Bool (and .def_118 .def_527))
(define-fun .def_529 () Bool (and .def_120 .def_528))
(define-fun .def_530 () Bool (and .def_122 .def_529))
(define-fun .def_531 () Bool (and .def_124 .def_530))
(define-fun .def_532 () Bool (and .def_126 .def_531))
(define-fun .def_533 () Bool (and .def_128 .def_532))
(define-fun .def_534 () Bool (and .def_132 .def_533))
(define-fun .def_542 () Bool (and .def_534 .def_541))
(define-fun .def_665 () Bool (or .def_542 .def_664))
(define-fun .def_511 () Bool (not .def_481))
(define-fun .def_512 () Bool (or .x.700 .def_511))
(define-fun .def_285 () Bool (and .def_85 .def_251))
(define-fun .def_384 () Bool (and .def_87 .def_285))
(define-fun .def_385 () Bool (and .def_91 .def_384))
(define-fun .def_386 () Bool (and .def_95 .def_385))
(define-fun .def_387 () Bool (and .def_97 .def_386))
(define-fun .def_388 () Bool (and .def_101 .def_387))
(define-fun .def_389 () Bool (and .def_68 .def_388))
(define-fun .def_494 () Bool (and .def_70 .def_389))
(define-fun .def_495 () Bool (and .def_72 .def_494))
(define-fun .def_496 () Bool (and .loc.9 .def_495))
(define-fun .def_497 () Bool (and .def_293 .def_496))
(define-fun .def_498 () Bool (and .def_108 .def_497))
(define-fun .def_499 () Bool (and .def_110 .def_498))
(define-fun .def_500 () Bool (and .def_112 .def_499))
(define-fun .def_501 () Bool (and .def_114 .def_500))
(define-fun .def_502 () Bool (and .def_116 .def_501))
(define-fun .def_503 () Bool (and .def_118 .def_502))
(define-fun .def_504 () Bool (and .def_120 .def_503))
(define-fun .def_505 () Bool (and .def_122 .def_504))
(define-fun .def_506 () Bool (and .def_124 .def_505))
(define-fun .def_507 () Bool (and .def_126 .def_506))
(define-fun .def_508 () Bool (and .def_128 .def_507))
(define-fun .def_509 () Bool (and .def_451 .def_508))
(define-fun .def_510 () Bool (and .def_132 .def_509))
(define-fun .def_513 () Bool (and .def_510 .def_512))
(define-fun .def_666 () Bool (or .def_513 .def_665))
(define-fun .def_492 () Bool (or .x.700 .def_491))
(define-fun .def_477 () Bool (not .def_476))
(define-fun .def_478 () Bool (or .x.700 .def_477))
(define-fun .def_455 () Bool (and .def_87 .def_251))
(define-fun .def_456 () Bool (and .def_91 .def_455))
(define-fun .def_457 () Bool (and .def_101 .def_456))
(define-fun .def_458 () Bool (and .def_68 .def_457))
(define-fun .def_459 () Bool (and .def_70 .def_458))
(define-fun .def_460 () Bool (and .def_72 .def_459))
(define-fun .def_461 () Bool (and .def_293 .def_460))
(define-fun .def_462 () Bool (and .def_108 .def_461))
(define-fun .def_463 () Bool (and .def_110 .def_462))
(define-fun .def_464 () Bool (and .def_112 .def_463))
(define-fun .def_465 () Bool (and .def_114 .def_464))
(define-fun .def_466 () Bool (and .def_116 .def_465))
(define-fun .def_467 () Bool (and .def_118 .def_466))
(define-fun .def_468 () Bool (and .def_120 .def_467))
(define-fun .def_469 () Bool (and .def_122 .def_468))
(define-fun .def_470 () Bool (and .def_124 .def_469))
(define-fun .def_471 () Bool (and .def_126 .def_470))
(define-fun .def_472 () Bool (and .def_128 .def_471))
(define-fun .def_473 () Bool (and .def_451 .def_472))
(define-fun .def_474 () Bool (and .def_130 .def_473))
(define-fun .def_475 () Bool (and .def_132 .def_474))
(define-fun .def_479 () Bool (and .def_475 .def_478))
(define-fun .def_493 () Bool (and .def_479 .def_492))
(define-fun .def_667 () Bool (or .def_493 .def_666))
(define-fun .def_432 () Bool (and .def_66 .x.700))
(define-fun .def_433 () Bool (and .def_251 .def_432))
(define-fun .def_434 () Bool (and .def_87 .def_433))
(define-fun .def_435 () Bool (and .def_91 .def_434))
(define-fun .def_436 () Bool (and .def_68 .def_435))
(define-fun .def_437 () Bool (and .def_70 .def_436))
(define-fun .def_438 () Bool (and .def_72 .def_437))
(define-fun .def_439 () Bool (and .def_293 .def_438))
(define-fun .def_440 () Bool (and .def_108 .def_439))
(define-fun .def_441 () Bool (and .def_110 .def_440))
(define-fun .def_442 () Bool (and .def_112 .def_441))
(define-fun .def_443 () Bool (and .def_114 .def_442))
(define-fun .def_444 () Bool (and .def_116 .def_443))
(define-fun .def_445 () Bool (and .def_118 .def_444))
(define-fun .def_446 () Bool (and .def_120 .def_445))
(define-fun .def_447 () Bool (and .def_122 .def_446))
(define-fun .def_448 () Bool (and .def_124 .def_447))
(define-fun .def_449 () Bool (and .def_126 .def_448))
(define-fun .def_450 () Bool (and .def_128 .def_449))
(define-fun .def_452 () Bool (and .def_450 .def_451))
(define-fun .def_453 () Bool (and .def_130 .def_452))
(define-fun .def_454 () Bool (and .def_132 .def_453))
(define-fun .def_668 () Bool (or .def_454 .def_667))
(define-fun .def_408 () Bool (and .def_66 .def_251))
(define-fun .def_409 () Bool (and .def_85 .def_408))
(define-fun .def_410 () Bool (and .def_87 .def_409))
(define-fun .def_411 () Bool (and .def_91 .def_410))
(define-fun .def_412 () Bool (and .def_95 .def_411))
(define-fun .def_413 () Bool (and .def_97 .def_412))
(define-fun .def_414 () Bool (and .def_101 .def_413))
(define-fun .def_415 () Bool (and .def_68 .def_414))
(define-fun .def_416 () Bool (and .def_72 .def_415))
(define-fun .def_417 () Bool (and .def_105 .def_416))
(define-fun .def_418 () Bool (and .loc.10 .def_417))
(define-fun .def_419 () Bool (and .loc.11 .def_418))
(define-fun .def_420 () Bool (and .def_110 .def_419))
(define-fun .def_421 () Bool (and .def_112 .def_420))
(define-fun .def_422 () Bool (and .def_114 .def_421))
(define-fun .def_423 () Bool (and .def_116 .def_422))
(define-fun .def_424 () Bool (and .def_118 .def_423))
(define-fun .def_425 () Bool (and .def_120 .def_424))
(define-fun .def_426 () Bool (and .def_122 .def_425))
(define-fun .def_427 () Bool (and .def_124 .def_426))
(define-fun .def_428 () Bool (and .def_126 .def_427))
(define-fun .def_429 () Bool (and .def_128 .def_428))
(define-fun .def_430 () Bool (and .def_130 .def_429))
(define-fun .def_431 () Bool (and .def_132 .def_430))
(define-fun .def_669 () Bool (or .def_431 .def_668))
(define-fun .def_390 () Bool (and .def_72 .def_389))
(define-fun .def_391 () Bool (and .def_105 .def_390))
(define-fun .def_392 () Bool (and .loc.10 .def_391))
(define-fun .def_393 () Bool (and .loc.11 .def_392))
(define-fun .def_394 () Bool (and .def_110 .def_393))
(define-fun .def_395 () Bool (and .def_112 .def_394))
(define-fun .def_396 () Bool (and .def_114 .def_395))
(define-fun .def_397 () Bool (and .def_116 .def_396))
(define-fun .def_398 () Bool (and .def_118 .def_397))
(define-fun .def_399 () Bool (and .def_120 .def_398))
(define-fun .def_400 () Bool (and .def_122 .def_399))
(define-fun .def_401 () Bool (and .def_124 .def_400))
(define-fun .def_402 () Bool (and .def_126 .def_401))
(define-fun .def_403 () Bool (and .def_128 .def_402))
(define-fun .def_404 () Bool (and .def_130 .def_403))
(define-fun .def_406 () Bool (and .def_404 .def_405))
(define-fun .def_407 () Bool (and .def_132 .def_406))
(define-fun .def_670 () Bool (or .def_407 .def_669))
(define-fun .def_89 () Bool (= .def_38 .x.686))
(define-fun .def_671 () Bool (and .def_89 .def_670))
(define-fun .def_357 () Bool (and .def_91 .def_285))
(define-fun .def_358 () Bool (and .def_95 .def_357))
(define-fun .def_359 () Bool (and .def_97 .def_358))
(define-fun .def_360 () Bool (and .def_101 .def_359))
(define-fun .def_361 () Bool (and .def_68 .def_360))
(define-fun .def_362 () Bool (and .def_70 .def_361))
(define-fun .def_363 () Bool (and .def_203 .def_362))
(define-fun .def_364 () Bool (and .loc.9 .def_363))
(define-fun .def_365 () Bool (and .loc.11 .def_364))
(define-fun .def_366 () Bool (and .def_293 .def_365))
(define-fun .def_367 () Bool (and .def_110 .def_366))
(define-fun .def_368 () Bool (and .def_112 .def_367))
(define-fun .def_369 () Bool (and .def_114 .def_368))
(define-fun .def_370 () Bool (and .def_116 .def_369))
(define-fun .def_371 () Bool (and .def_118 .def_370))
(define-fun .def_372 () Bool (and .def_120 .def_371))
(define-fun .def_373 () Bool (and .def_122 .def_372))
(define-fun .def_374 () Bool (and .def_124 .def_373))
(define-fun .def_375 () Bool (and .def_126 .def_374))
(define-fun .def_376 () Bool (and .def_128 .def_375))
(define-fun .def_377 () Bool (and .def_132 .def_376))
(define-fun .def_383 () Bool (and .def_377 .def_382))
(define-fun .def_672 () Bool (or .def_383 .def_671))
(define-fun .def_195 () Bool (= .def_48 .x.691))
(define-fun .def_189 () Bool (= .def_30 .x.682))
(define-fun .def_83 () Bool (= .def_26 .x.680))
(define-fun .def_81 () Bool (= .def_18 .x.676))
(define-fun .def_80 () Bool (= .def_22 .x.678))
(define-fun .def_82 () Bool (and .def_80 .def_81))
(define-fun .def_84 () Bool (and .def_82 .def_83))
(define-fun .def_190 () Bool (and .def_84 .def_189))
(define-fun .def_354 () Bool (and .def_190 .def_195))
(define-fun .def_93 () Bool (= .def_54 .x.694))
(define-fun .def_355 () Bool (and .def_93 .def_354))
(define-fun .def_99 () Bool (= .def_64 .x.699))
(define-fun .def_356 () Bool (and .def_99 .def_355))
(define-fun .def_673 () Bool (and .def_356 .def_672))
(define-fun .def_349 () Bool (= .x.680 0))
(define-fun .def_348 () Bool (= .x.676 0))
(define-fun .def_350 () Bool (and .def_348 .def_349))
(define-fun .def_346 () (Array Int Int) (store .def_10 0 0))
(define-fun .def_347 () Bool (= .def_298 .def_346))
(define-fun .def_351 () Bool (and .def_347 .def_350))
(define-fun .def_352 () Bool (or .def_66 .def_351))
(define-fun .def_327 () Bool (<= .x.671 .x.695))
(define-fun .def_328 () Bool (not .def_327))
(define-fun .def_325 () Bool (<= .x.671 .x.688))
(define-fun .def_326 () Bool (not .def_325))
(define-fun .def_329 () Bool (and .def_326 .def_328))
(define-fun .def_323 () Bool (<= .x.671 .x.692))
(define-fun .def_324 () Bool (not .def_323))
(define-fun .def_330 () Bool (and .def_324 .def_329))
(define-fun .def_332 () Bool (and .def_330 .def_331))
(define-fun .def_321 () Bool (= .x.688 0))
(define-fun .def_322 () Bool (not .def_321))
(define-fun .def_333 () Bool (and .def_322 .def_332))
(define-fun .def_319 () Bool (= .x.695 0))
(define-fun .def_320 () Bool (not .def_319))
(define-fun .def_334 () Bool (and .def_320 .def_333))
(define-fun .def_317 () Bool (= .x.692 0))
(define-fun .def_318 () Bool (not .def_317))
(define-fun .def_335 () Bool (and .def_318 .def_334))
(define-fun .def_316 () Bool (= .x.687 0))
(define-fun .def_336 () Bool (and .def_316 .def_335))
(define-fun .def_315 () Bool (= .x.683 0))
(define-fun .def_337 () Bool (and .def_315 .def_336))
(define-fun .def_314 () Bool (= .x.697 0))
(define-fun .def_338 () Bool (and .def_314 .def_337))
(define-fun .def_312 () Int (select .def_298 .x.692))
(define-fun .def_313 () Bool (= .def_312 0))
(define-fun .def_339 () Bool (and .def_313 .def_338))
(define-fun .def_299 () (Array Int Int) (store .def_298 .x.692 1))
(define-fun .def_310 () Int (select .def_299 .x.695))
(define-fun .def_311 () Bool (= .def_310 0))
(define-fun .def_340 () Bool (and .def_311 .def_339))
(define-fun .def_300 () (Array Int Int) (store .def_299 .x.695 1))
(define-fun .def_308 () Int (select .def_300 .x.688))
(define-fun .def_309 () Bool (= .def_308 0))
(define-fun .def_341 () Bool (and .def_309 .def_340))
(define-fun .def_304 () (Array Int Int) (store .def_22 .x.692 400000))
(define-fun .def_305 () (Array Int Int) (store .def_304 .x.695 400000))
(define-fun .def_306 () (Array Int Int) (store .def_305 .x.688 400000))
(define-fun .def_307 () Bool (= .x.678 .def_306))
(define-fun .def_342 () Bool (and .def_307 .def_341))
(define-fun .def_301 () (Array Int Int) (store .def_300 .x.688 1))
(define-fun .def_302 () Bool (= .x.672 .def_301))
(define-fun .def_343 () Bool (and .def_302 .def_342))
(define-fun .def_344 () Bool (or .x.700 .def_343))
(define-fun .def_286 () Bool (and .def_95 .def_285))
(define-fun .def_287 () Bool (and .def_101 .def_286))
(define-fun .def_288 () Bool (and .def_72 .def_287))
(define-fun .def_289 () Bool (and .def_201 .def_288))
(define-fun .def_290 () Bool (and .def_105 .def_289))
(define-fun .def_291 () Bool (and .loc.9 .def_290))
(define-fun .def_292 () Bool (and .loc.11 .def_291))
(define-fun .def_294 () Bool (and .def_292 .def_293))
(define-fun .def_295 () Bool (and .def_110 .def_294))
(define-fun .def_296 () Bool (and .def_120 .def_295))
(define-fun .def_297 () Bool (and .def_132 .def_296))
(define-fun .def_345 () Bool (and .def_297 .def_344))
(define-fun .def_353 () Bool (and .def_345 .def_352))
(define-fun .def_674 () Bool (or .def_353 .def_673))
(define-fun .def_224 () Bool (= .def_220 0))
(define-fun .def_282 () Bool (or .x.700 .def_224))
(define-fun .def_252 () Bool (and .def_81 .def_251))
(define-fun .def_253 () Bool (and .def_80 .def_252))
(define-fun .def_254 () Bool (and .def_83 .def_253))
(define-fun .def_255 () Bool (and .def_189 .def_254))
(define-fun .def_256 () Bool (and .def_85 .def_255))
(define-fun .def_257 () Bool (and .def_87 .def_256))
(define-fun .def_258 () Bool (and .def_89 .def_257))
(define-fun .def_259 () Bool (and .def_91 .def_258))
(define-fun .def_260 () Bool (and .def_195 .def_259))
(define-fun .def_261 () Bool (and .def_95 .def_260))
(define-fun .def_262 () Bool (and .def_97 .def_261))
(define-fun .def_263 () Bool (and .def_99 .def_262))
(define-fun .def_264 () Bool (and .def_101 .def_263))
(define-fun .def_265 () Bool (and .def_70 .def_264))
(define-fun .def_266 () Bool (and .def_201 .def_265))
(define-fun .def_267 () Bool (and .def_203 .def_266))
(define-fun .def_268 () Bool (and .loc.9 .def_267))
(define-fun .def_269 () Bool (and .loc.10 .def_268))
(define-fun .def_270 () Bool (and .def_108 .def_269))
(define-fun .def_271 () Bool (and .def_110 .def_270))
(define-fun .def_272 () Bool (and .def_112 .def_271))
(define-fun .def_273 () Bool (and .def_114 .def_272))
(define-fun .def_274 () Bool (and .def_116 .def_273))
(define-fun .def_275 () Bool (and .def_118 .def_274))
(define-fun .def_276 () Bool (and .def_120 .def_275))
(define-fun .def_277 () Bool (and .def_122 .def_276))
(define-fun .def_278 () Bool (and .def_124 .def_277))
(define-fun .def_279 () Bool (and .def_126 .def_278))
(define-fun .def_280 () Bool (and .def_128 .def_279))
(define-fun .def_281 () Bool (and .def_132 .def_280))
(define-fun .def_283 () Bool (and .def_281 .def_282))
(define-fun .def_136 () Int (* 4 .def_36))
(define-fun .def_137 () Int (+ .def_32 .def_136))
(define-fun .def_219 () Int (select .def_138 .def_137))
(define-fun .def_221 () Bool (= .def_219 .def_220))
(define-fun .def_222 () Bool (or .def_66 .def_221))
(define-fun .def_284 () Bool (and .def_222 .def_283))
(define-fun .def_675 () Bool (or .def_284 .def_674))
(define-fun .def_236 () (Array Int Int) (select .def_14 .x.688))
(define-fun .def_244 () (Array Int Int) (store .def_236 .def_237 0))
(define-fun .def_245 () (Array Int (Array Int Int)) (store .def_14 .x.688 .def_244))
(define-fun .def_246 () Bool (= .x.674 .def_245))
(define-fun .def_233 () Bool (= .def_228 0))
(define-fun .def_247 () Bool (and .def_233 .def_246))
(define-fun .def_248 () Bool (or .x.700 .def_247))
(define-fun .def_191 () Bool (and .def_85 .def_190))
(define-fun .def_192 () Bool (and .def_87 .def_191))
(define-fun .def_193 () Bool (and .def_89 .def_192))
(define-fun .def_194 () Bool (and .def_91 .def_193))
(define-fun .def_196 () Bool (and .def_194 .def_195))
(define-fun .def_197 () Bool (and .def_95 .def_196))
(define-fun .def_198 () Bool (and .def_97 .def_197))
(define-fun .def_199 () Bool (and .def_101 .def_198))
(define-fun .def_200 () Bool (and .def_70 .def_199))
(define-fun .def_202 () Bool (and .def_200 .def_201))
(define-fun .def_204 () Bool (and .def_202 .def_203))
(define-fun .def_205 () Bool (and .loc.9 .def_204))
(define-fun .def_206 () Bool (and .loc.10 .def_205))
(define-fun .def_207 () Bool (and .def_108 .def_206))
(define-fun .def_208 () Bool (and .def_110 .def_207))
(define-fun .def_209 () Bool (and .def_112 .def_208))
(define-fun .def_210 () Bool (and .def_114 .def_209))
(define-fun .def_211 () Bool (and .def_116 .def_210))
(define-fun .def_212 () Bool (and .def_118 .def_211))
(define-fun .def_213 () Bool (and .def_120 .def_212))
(define-fun .def_214 () Bool (and .def_122 .def_213))
(define-fun .def_215 () Bool (and .def_124 .def_214))
(define-fun .def_216 () Bool (and .def_126 .def_215))
(define-fun .def_217 () Bool (and .def_128 .def_216))
(define-fun .def_218 () Bool (and .def_132 .def_217))
(define-fun .def_223 () Bool (and .def_218 .def_222))
(define-fun .def_249 () Bool (and .def_223 .def_248))
(define-fun .def_178 () Int (+ .def_169 .x.697))
(define-fun .def_226 () (Array Int Int) (select .def_14 .x.695))
(define-fun .def_227 () Int (select .def_226 .def_178))
(define-fun .def_229 () Bool (= .def_227 .def_228))
(define-fun .def_225 () Bool (not .def_224))
(define-fun .def_230 () Bool (and .def_225 .def_229))
(define-fun .def_231 () Bool (or .x.700 .def_230))
(define-fun .def_250 () Bool (and .def_231 .def_249))
(define-fun .def_676 () Bool (or .def_250 .def_675))
(define-fun .def_238 () (Array Int Int) (store .def_236 .def_237 1))
(define-fun .def_239 () (Array Int (Array Int Int)) (store .def_14 .x.688 .def_238))
(define-fun .def_240 () Bool (= .x.674 .def_239))
(define-fun .def_234 () Bool (not .def_233))
(define-fun .def_241 () Bool (and .def_234 .def_240))
(define-fun .def_242 () Bool (or .x.700 .def_241))
(define-fun .def_232 () Bool (and .def_223 .def_231))
(define-fun .def_243 () Bool (and .def_232 .def_242))
(define-fun .def_677 () Bool (or .def_243 .def_676))
(define-fun .def_139 () (Array Int Int) (store .def_138 .def_137 0))
(define-fun .def_140 () (Array Int (Array Int Int)) (store .def_14 .def_50 .def_139))
(define-fun .def_185 () Bool (= .def_140 .def_173))
(define-fun .def_151 () Bool (= .def_30 .x.691))
(define-fun .def_149 () Bool (<= (- 2147483648) .def_30))
(define-fun .def_143 () Bool (<= .def_30 2147483647))
(define-fun .def_147 () Bool (and .def_143 .def_146))
(define-fun .def_150 () Bool (and .def_147 .def_149))
(define-fun .def_152 () Bool (and .def_150 .def_151))
(define-fun .def_186 () Bool (and .def_152 .def_185))
(define-fun .def_187 () Bool (or .def_66 .def_186))
(define-fun .def_157 () Real (* (/ 1 2) (to_real .x.685)))
(define-fun .def_158 () Int (to_int .def_157))
(define-fun .def_160 () Int (* (- 2) .def_158))
(define-fun .def_161 () Int (+ .x.685 .def_160))
(define-fun .def_162 () Int (+ (- 2) .def_161))
(define-fun .def_165 () Bool (= .def_161 0))
(define-fun .def_166 () Bool (not .def_165))
(define-fun .def_163 () Bool (<= 0 .x.685))
(define-fun .def_164 () Bool (not .def_163))
(define-fun .def_167 () Bool (and .def_164 .def_166))
(define-fun .def_168 () Int (ite .def_167 .def_162 .def_161))
(define-fun .def_172 () Int (+ .x.683 .def_169))
(define-fun .def_174 () (Array Int Int) (select .def_173 .x.692))
(define-fun .def_175 () (Array Int Int) (store .def_174 .def_172 1))
(define-fun .def_176 () (Array Int (Array Int Int)) (store .def_173 .x.692 .def_175))
(define-fun .def_177 () (Array Int Int) (select .def_176 .x.695))
(define-fun .def_179 () (Array Int Int) (store .def_177 .def_178 .def_168))
(define-fun .def_180 () (Array Int (Array Int Int)) (store .def_176 .x.695 .def_179))
(define-fun .def_181 () Bool (= .x.674 .def_180))
(define-fun .def_77 () Bool (= .x.691 0))
(define-fun .def_182 () Bool (and .def_77 .def_181))
(define-fun .def_183 () Bool (or .x.700 .def_182))
(define-fun .def_86 () Bool (and .def_84 .def_85))
(define-fun .def_88 () Bool (and .def_86 .def_87))
(define-fun .def_90 () Bool (and .def_88 .def_89))
(define-fun .def_92 () Bool (and .def_90 .def_91))
(define-fun .def_94 () Bool (and .def_92 .def_93))
(define-fun .def_96 () Bool (and .def_94 .def_95))
(define-fun .def_98 () Bool (and .def_96 .def_97))
(define-fun .def_100 () Bool (and .def_98 .def_99))
(define-fun .def_102 () Bool (and .def_100 .def_101))
(define-fun .def_103 () Bool (and .def_68 .def_102))
(define-fun .def_104 () Bool (and .def_72 .def_103))
(define-fun .def_106 () Bool (and .def_104 .def_105))
(define-fun .def_107 () Bool (and .loc.10 .def_106))
(define-fun .def_109 () Bool (and .def_107 .def_108))
(define-fun .def_111 () Bool (and .def_109 .def_110))
(define-fun .def_113 () Bool (and .def_111 .def_112))
(define-fun .def_115 () Bool (and .def_113 .def_114))
(define-fun .def_117 () Bool (and .def_115 .def_116))
(define-fun .def_119 () Bool (and .def_117 .def_118))
(define-fun .def_121 () Bool (and .def_119 .def_120))
(define-fun .def_123 () Bool (and .def_121 .def_122))
(define-fun .def_125 () Bool (and .def_123 .def_124))
(define-fun .def_127 () Bool (and .def_125 .def_126))
(define-fun .def_129 () Bool (and .def_127 .def_128))
(define-fun .def_131 () Bool (and .def_129 .def_130))
(define-fun .def_133 () Bool (and .def_131 .def_132))
(define-fun .def_184 () Bool (and .def_133 .def_183))
(define-fun .def_188 () Bool (and .def_184 .def_187))
(define-fun .def_678 () Bool (or .def_188 .def_677))
(define-fun .def_141 () Bool (= .x.674 .def_140))
(define-fun .def_153 () Bool (and .def_141 .def_152))
(define-fun .def_154 () Bool (or .def_66 .def_153))
(define-fun .def_78 () Bool (not .def_77))
(define-fun .def_79 () Bool (or .x.700 .def_78))
(define-fun .def_134 () Bool (and .def_79 .def_133))
(define-fun .def_155 () Bool (and .def_134 .def_154))
(define-fun .def_679 () Bool (or .def_155 .def_678))
(define-fun .def_691 () Bool (! (and .def_679 .def_690) :trans true))
(define-fun .def_707 () Bool (and .def_68 .def_105))
(define-fun .def_708 () Bool (and .def_203 .def_707))
(define-fun .def_709 () Bool (and .def_74 .def_708))
(define-fun .def_710 () Bool (and .def_66 .def_709))
(define-fun .def_711 () Bool (! (not .def_710) :invar-property 0))
(assert true)
